(declare-fun e () String)
(declare-fun c () String)
(declare-fun b () String)
(declare-fun f () String)
(declare-fun a () String)
(declare-fun h () String)
(assert (= e (str.++ h e "ec" b)))
(assert (= c (str.++ "dg" c)))
(assert (= (str.++ "c" f "g") (str.++ "d" a)))

(check-sat)
